p wcnf 121 60 61 
1 1 -29 0 
1 -79 68 0 
1 -52 37 0 
1 -20 -92 0 
1 78 -84 0 
1 -5 -108 0 
1 23 -6 0 
1 55 -119 0 
1 3 -101 0 
1 -40 61 0 
1 58 64 0 
1 41 35 0 
1 -75 107 0 
1 -114 10 0 
1 109 62 0 
1 -32 -39 0 
1 76 104 0 
1 62 -101 0 
1 -58 86 0 
1 20 57 0 
1 64 61 0 
1 79 -6 0 
1 -11 53 0 
1 -65 16 0 
1 60 103 0 
1 -100 -68 0 
1 -104 -93 0 
1 59 92 0 
1 -48 116 0 
1 108 -87 0 
1 -104 -66 0 
1 -67 77 0 
1 -102 76 0 
1 105 42 0 
1 64 13 0 
1 -26 -83 0 
1 -67 -17 0 
1 112 27 0 
1 -104 87 0 
1 -114 -25 0 
1 -62 53 0 
1 -90 9 0 
1 -46 -86 0 
1 -60 48 0 
1 -118 -63 0 
1 55 -48 0 
1 -59 43 0 
1 -57 64 0 
1 10 -92 0 
1 -113 -94 0 
1 -35 -79 0 
1 49 39 0 
1 -6 34 0 
1 -91 88 0 
1 -95 50 0 
1 13 86 0 
1 21 -96 0 
1 -22 -55 0 
1 -97 -87 0 
1 61 111 0 
